p cnf 704 2311
a 2 3 4 5 6 7 8 12 17 19 21 22 23 26 28 30 31 33 35 37 38 40 42 44 46 48 50 52 55 56 63 65 69 73 75 77 81 88 93 98 101 102 109 110 114 118 119 122 126 130 132 134 136 138 139 143 147 149 153 157 162 164 168 170 171 174 178 0
e 1 9 10 11 13 14 15 16 18 20 24 25 27 29 32 34 36 39 41 43 45 47 49 51 53 54 57 58 59 60 61 62 64 66 67 68 70 71 72 74 76 78 79 80 82 83 84 85 86 87 89 90 91 92 94 95 96 97 99 100 103 104 105 106 107 108 111 112 113 115 116 117 120 121 123 124 125 127 128 129 131 133 135 137 140 141 142 144 145 146 148 150 151 152 154 155 156 158 159 160 161 163 165 166 167 169 172 173 175 176 177 179 180 181 182 183 184 185 186 187 188 189 190 191 192 193 194 195 196 197 198 199 200 201 202 203 204 205 206 207 208 209 210 211 212 213 214 215 216 217 218 219 220 221 222 223 224 225 226 227 228 229 230 231 232 233 234 235 236 237 238 239 240 241 242 243 244 245 246 247 248 249 250 251 252 253 254 255 256 257 258 259 260 261 262 263 264 265 266 267 268 269 270 271 272 273 274 275 276 277 278 279 280 281 282 283 284 285 286 287 288 289 290 291 292 293 294 295 296 297 298 299 300 301 302 303 304 305 306 307 308 309 310 311 312 313 314 315 316 317 318 319 320 321 322 323 324 325 326 327 328 329 330 331 332 333 334 335 336 337 338 339 340 341 342 343 344 345 346 347 348 349 350 351 352 353 354 355 356 357 358 359 360 361 362 363 364 365 366 367 368 369 370 371 372 373 374 375 376 377 378 379 380 381 382 383 384 385 386 387 388 389 390 391 392 393 394 395 396 397 398 399 400 401 402 403 404 405 406 407 408 409 410 411 412 413 414 415 416 417 418 419 420 421 422 423 424 425 426 427 428 429 430 431 432 433 434 435 436 437 438 439 440 441 442 443 444 445 446 447 448 449 450 451 452 453 454 455 456 457 458 459 460 461 462 463 464 465 466 467 468 469 470 471 472 473 474 475 476 477 478 479 480 481 482 483 484 485 486 487 488 489 490 491 492 493 494 495 496 497 498 499 500 501 502 503 504 505 506 507 508 509 510 511 512 513 514 515 516 517 518 519 520 521 522 523 524 525 526 527 528 529 530 531 532 533 534 535 536 537 538 539 540 541 542 543 544 545 546 547 548 549 550 551 552 553 554 555 556 557 558 559 560 561 562 563 564 565 566 567 568 569 570 571 572 573 574 575 576 577 578 579 580 581 582 583 584 585 586 587 588 589 590 591 592 593 594 595 596 597 598 599 600 601 602 603 604 605 606 607 608 609 610 611 612 613 614 615 616 617 618 619 620 621 622 623 624 625 626 627 628 629 630 631 632 633 634 635 636 637 638 639 640 641 642 643 644 645 646 647 648 649 650 651 652 653 654 655 656 657 658 659 660 661 662 663 664 665 666 667 668 669 670 671 672 673 674 675 676 677 678 679 680 681 682 683 684 685 686 687 688 689 690 691 692 693 694 695 696 697 698 699 700 701 702 703 704 0
1 0
7 -9 0
8 -9 0
-7 -8 9 0
7 -10 0
-8 -10 0
-7 8 10 0
7 11 0
-9 11 0
-10 11 0
-7 9 10 -11 0
-12 13 0
12 13 0
6 -14 0
11 -14 0
13 -14 0
-6 -11 -13 14 0
-6 -15 0
11 -15 0
6 -11 15 0
-14 16 0
-15 16 0
14 15 -16 0
-17 18 0
17 18 0
-19 20 0
19 20 0
22 -24 0
-23 -24 0
-22 23 24 0
22 25 0
-24 25 0
-22 24 -25 0
-26 27 0
26 27 0
27 -29 0
28 -29 0
-27 -28 29 0
-31 32 0
31 32 0
32 -34 0
-33 -34 0
-32 33 34 0
32 -36 0
33 -36 0
35 -36 0
-32 -33 -35 36 0
32 -39 0
33 -39 0
-35 -39 0
37 -39 0
38 -39 0
-32 -33 35 -37 -38 39 0
32 -41 0
33 -41 0
-35 -41 0
37 -41 0
-38 -41 0
-40 -41 0
-32 -33 35 -37 38 40 41 0
32 -43 0
33 -43 0
-35 -43 0
-37 -43 0
-42 -43 0
-32 -33 35 37 42 43 0
32 -45 0
33 -45 0
-35 -45 0
-37 -45 0
42 -45 0
44 -45 0
-32 -33 35 37 -42 -44 45 0
32 -47 0
33 -47 0
-35 -47 0
37 -47 0
-38 -47 0
40 -47 0
46 -47 0
-32 -33 35 -37 38 -40 -46 47 0
32 -49 0
33 -49 0
-35 -49 0
37 -49 0
-38 -49 0
40 -49 0
-46 -49 0
48 -49 0
-32 -33 35 -37 38 -40 46 -48 49 0
-50 51 0
50 51 0
32 -53 0
33 -53 0
-35 -53 0
-37 -53 0
42 -53 0
-44 -53 0
51 -53 0
52 -53 0
-32 -33 35 37 -42 44 -51 -52 53 0
32 -54 0
33 -54 0
-35 -54 0
-37 -54 0
42 -54 0
-44 -54 0
51 -54 0
-52 -54 0
-32 -33 35 37 -42 44 -51 52 54 0
55 -57 0
56 -57 0
-55 -56 57 0
55 -58 0
-56 -58 0
-55 56 58 0
55 59 0
-57 59 0
-58 59 0
-55 57 58 -59 0
32 -60 0
33 -60 0
-35 -60 0
37 -60 0
-38 -60 0
40 -60 0
-46 -60 0
-48 -60 0
59 -60 0
-32 -33 35 -37 38 -40 46 48 -59 60 0
-34 61 0
-36 61 0
-39 61 0
-41 61 0
-43 61 0
-45 61 0
-47 61 0
-49 61 0
-53 61 0
-54 61 0
-60 61 0
34 36 39 41 43 45 47 49 53 54 60 -61 0
27 -62 0
-28 -62 0
-30 -62 0
61 -62 0
-27 28 30 -61 62 0
27 -64 0
-28 -64 0
30 -64 0
-63 -64 0
-27 28 -30 63 64 0
27 -66 0
-28 -66 0
30 -66 0
63 -66 0
-65 -66 0
-27 28 -30 -63 65 66 0
27 -67 0
-28 -67 0
30 -67 0
63 -67 0
65 -67 0
-27 28 -30 -63 -65 67 0
-62 68 0
-64 68 0
-66 68 0
-67 68 0
62 64 66 67 -68 0
68 -70 0
69 -70 0
-68 -69 70 0
68 -71 0
-69 -71 0
-68 69 71 0
-29 72 0
-70 72 0
-71 72 0
29 70 71 -72 0
-73 74 0
73 74 0
21 -76 0
25 -76 0
72 -76 0
74 -76 0
75 -76 0
-21 -25 -72 -74 -75 76 0
-77 78 0
77 78 0
21 -79 0
25 -79 0
72 -79 0
74 -79 0
-75 -79 0
78 -79 0
-21 -25 -72 -74 75 -78 79 0
-76 80 0
-79 80 0
76 79 -80 0
80 -82 0
81 -82 0
-80 -81 82 0
80 -83 0
-81 -83 0
-80 81 83 0
21 84 0
-82 84 0
-83 84 0
-21 82 83 -84 0
5 -85 0
16 -85 0
18 -85 0
20 -85 0
84 -85 0
-5 -16 -18 -20 -84 85 0
-5 -86 0
16 -86 0
18 -86 0
20 -86 0
5 -16 -18 -20 86 0
-85 87 0
-86 87 0
85 86 -87 0
88 89 0
-88 89 0
4 -90 0
87 -90 0
89 -90 0
-4 -87 -89 90 0
-4 -91 0
87 -91 0
4 -87 91 0
-90 92 0
-91 92 0
90 91 -92 0
93 94 0
-93 94 0
3 -95 0
92 -95 0
94 -95 0
-3 -92 -94 95 0
-3 -96 0
92 -96 0
3 -92 96 0
-95 97 0
-96 97 0
95 96 -97 0
98 99 0
-98 99 0
2 -100 0
97 -100 0
99 -100 0
-2 -97 -99 100 0
102 103 0
-102 103 0
101 -104 0
97 -104 0
103 -104 0
-101 -97 -103 104 0
-101 -105 0
97 -105 0
101 -97 105 0
-104 106 0
-105 106 0
104 105 -106 0
-2 -107 0
106 -107 0
2 -106 107 0
-100 108 0
-107 108 0
100 107 -108 0
109 -111 0
110 -111 0
-109 -110 111 0
109 -112 0
-110 -112 0
-109 110 112 0
-111 113 0
-112 113 0
111 112 -113 0
113 -115 0
114 -115 0
-113 -114 115 0
113 -116 0
-114 -116 0
-113 114 116 0
-115 117 0
-116 117 0
115 116 -117 0
117 -120 0
-118 -120 0
119 -120 0
-117 118 -119 120 0
117 -121 0
-118 -121 0
-119 -121 0
-117 118 119 121 0
117 -123 0
118 -123 0
122 -123 0
-117 -118 -122 123 0
117 -124 0
118 -124 0
-122 -124 0
-117 -118 122 124 0
-120 125 0
-121 125 0
-123 125 0
-124 125 0
120 121 123 124 -125 0
125 -127 0
126 -127 0
-125 -126 127 0
125 -128 0
-126 -128 0
-125 126 128 0
-127 129 0
-128 129 0
127 128 -129 0
129 -131 0
130 -131 0
-129 -130 131 0
129 -133 0
-130 -133 0
132 -133 0
-129 130 -132 133 0
129 -135 0
-130 -135 0
-132 -135 0
134 -135 0
-129 130 132 -134 135 0
129 -137 0
-130 -137 0
-132 -137 0
-134 -137 0
136 -137 0
-129 130 132 134 -136 137 0
129 -140 0
-130 -140 0
-132 -140 0
-134 -140 0
-136 -140 0
138 -140 0
139 -140 0
-129 130 132 134 136 -138 -139 140 0
129 -141 0
-130 -141 0
-132 -141 0
-134 -141 0
-136 -141 0
138 -141 0
-139 -141 0
-129 130 132 134 136 -138 139 141 0
-140 142 0
-141 142 0
140 141 -142 0
142 -144 0
143 -144 0
-142 -143 144 0
142 -145 0
-143 -145 0
-142 143 145 0
-144 146 0
-145 146 0
144 145 -146 0
146 -148 0
147 -148 0
-146 -147 148 0
129 -150 0
-130 -150 0
-132 -150 0
-134 -150 0
-136 -150 0
-138 -150 0
149 -150 0
-129 130 132 134 136 138 -149 150 0
129 -151 0
-130 -151 0
-132 -151 0
-134 -151 0
-136 -151 0
-138 -151 0
-149 -151 0
-129 130 132 134 136 138 149 151 0
-150 152 0
-151 152 0
150 151 -152 0
152 -154 0
153 -154 0
-152 -153 154 0
152 -155 0
-153 -155 0
-152 153 155 0
-154 156 0
-155 156 0
154 155 -156 0
156 -158 0
157 -158 0
-156 -157 158 0
146 -159 0
-147 -159 0
-146 147 159 0
156 -160 0
-157 -160 0
-156 157 160 0
-148 161 0
-158 161 0
-159 161 0
-160 161 0
148 158 159 160 -161 0
161 -163 0
-162 -163 0
-161 162 163 0
161 -165 0
162 -165 0
164 -165 0
-161 -162 -164 165 0
161 -166 0
162 -166 0
-164 -166 0
-161 -162 164 166 0
109 167 0
-131 167 0
-133 167 0
-135 167 0
-137 167 0
-163 167 0
-165 167 0
-166 167 0
-109 131 133 135 137 163 165 166 -167 0
168 169 0
-168 169 0
169 -172 0
-170 -172 0
171 -172 0
-169 170 -171 172 0
169 -173 0
-170 -173 0
-171 -173 0
-169 170 171 173 0
169 -175 0
170 -175 0
174 -175 0
-169 -170 -174 175 0
169 -176 0
170 -176 0
-174 -176 0
-169 -170 174 176 0
-172 177 0
-173 177 0
-175 177 0
-176 177 0
172 173 175 176 -177 0
177 -179 0
178 -179 0
-177 -178 179 0
177 -180 0
-178 -180 0
-177 178 180 0
-179 181 0
-180 181 0
179 180 -181 0
108 -182 0
167 -182 0
181 -182 0
-108 -167 -181 182 0
-12 183 0
12 183 0
6 -184 0
183 -184 0
-6 -183 184 0
-184 185 0
6 185 0
184 -6 -185 0
185 -186 0
-21 -186 0
-185 21 186 0
185 -187 0
27 -187 0
28 -187 0
-185 -27 -28 187 0
185 -188 0
27 -188 0
-28 -188 0
30 -188 0
63 -188 0
-65 -188 0
-185 -27 28 -30 -63 65 188 0
185 -189 0
27 -189 0
-28 -189 0
30 -189 0
63 -189 0
65 -189 0
-185 -27 28 -30 -63 -65 189 0
185 -190 0
27 -190 0
-28 -190 0
30 -190 0
-63 -190 0
-185 -27 28 -30 63 190 0
185 -191 0
31 -191 0
-185 -31 191 0
185 -192 0
-31 -192 0
-185 31 192 0
-191 193 0
-192 193 0
191 192 -193 0
-34 194 0
-36 194 0
-39 194 0
-41 194 0
-43 194 0
-45 194 0
-47 194 0
-49 194 0
34 36 39 41 43 45 47 49 -194 0
193 -195 0
194 -195 0
-193 -194 195 0
193 -196 0
32 -196 0
33 -196 0
-35 -196 0
37 -196 0
-38 -196 0
40 -196 0
-46 -196 0
-48 -196 0
59 -196 0
-193 -32 -33 35 -37 38 -40 46 48 -59 196 0
-53 197 0
-54 197 0
53 54 -197 0
193 -198 0
197 -198 0
-193 -197 198 0
-195 199 0
-196 199 0
-198 199 0
195 196 198 -199 0
199 -200 0
27 -200 0
-28 -200 0
-30 -200 0
61 -200 0
-199 -27 28 30 -61 200 0
-188 201 0
-189 201 0
-190 201 0
-200 201 0
188 189 190 200 -201 0
201 -202 0
68 -202 0
69 -202 0
-201 -68 -69 202 0
201 -203 0
68 -203 0
-69 -203 0
-201 -68 69 203 0
-187 204 0
-202 204 0
-203 204 0
187 202 203 -204 0
204 -205 0
21 -205 0
25 -205 0
72 -205 0
74 -205 0
75 -205 0
-204 -21 -25 -72 -74 -75 205 0
204 -206 0
21 -206 0
25 -206 0
72 -206 0
74 -206 0
-75 -206 0
78 -206 0
-204 -21 -25 -72 -74 75 -78 206 0
-205 207 0
-206 207 0
205 206 -207 0
-82 208 0
-83 208 0
82 83 -208 0
207 -209 0
208 -209 0
-207 -208 209 0
-186 210 0
-209 210 0
186 209 -210 0
5 -211 0
210 -211 0
-5 -210 211 0
-5 -212 0
185 -212 0
5 -185 212 0
-211 213 0
-212 213 0
211 212 -213 0
213 -214 0
-88 -214 0
-213 88 214 0
213 -215 0
88 -215 0
-213 -88 215 0
-214 216 0
-215 216 0
214 215 -216 0
4 -217 0
216 -217 0
-4 -216 217 0
-4 -218 0
213 -218 0
4 -213 218 0
-217 219 0
-218 219 0
217 218 -219 0
219 -220 0
-93 -220 0
-219 93 220 0
219 -221 0
93 -221 0
-219 -93 221 0
-220 222 0
-221 222 0
220 221 -222 0
3 -223 0
222 -223 0
-3 -222 223 0
-3 -224 0
219 -224 0
3 -219 224 0
-223 225 0
-224 225 0
223 224 -225 0
225 -226 0
-98 -226 0
-225 98 226 0
225 -227 0
98 -227 0
-225 -98 227 0
-226 228 0
-227 228 0
226 227 -228 0
2 -229 0
228 -229 0
-2 -228 229 0
225 -230 0
-102 -230 0
-225 102 230 0
225 -231 0
102 -231 0
-225 -102 231 0
-230 232 0
-231 232 0
230 231 -232 0
101 -233 0
232 -233 0
-101 -232 233 0
-101 -234 0
225 -234 0
101 -225 234 0
-233 235 0
-234 235 0
233 234 -235 0
-2 -236 0
235 -236 0
2 -235 236 0
-229 237 0
-236 237 0
229 236 -237 0
237 -238 0
-109 -238 0
-237 109 238 0
237 -239 0
109 -239 0
110 -239 0
-237 -109 -110 239 0
237 -240 0
109 -240 0
-110 -240 0
-237 -109 110 240 0
-239 241 0
-240 241 0
239 240 -241 0
241 -242 0
113 -242 0
114 -242 0
-241 -113 -114 242 0
241 -243 0
113 -243 0
-114 -243 0
-241 -113 114 243 0
-242 244 0
-243 244 0
242 243 -244 0
244 -245 0
125 -245 0
126 -245 0
-244 -125 -126 245 0
244 -246 0
125 -246 0
-126 -246 0
-244 -125 126 246 0
-245 247 0
-246 247 0
245 246 -247 0
-131 248 0
-133 248 0
-135 248 0
-137 248 0
131 133 135 137 -248 0
247 -249 0
248 -249 0
-247 -248 249 0
247 -250 0
129 -250 0
-130 -250 0
-132 -250 0
-134 -250 0
-136 -250 0
-138 -250 0
149 -250 0
-247 -129 130 132 134 136 138 -149 250 0
247 -251 0
129 -251 0
-130 -251 0
-132 -251 0
-134 -251 0
-136 -251 0
-138 -251 0
-149 -251 0
-247 -129 130 132 134 136 138 149 251 0
-250 252 0
-251 252 0
250 251 -252 0
252 -253 0
152 -253 0
153 -253 0
-252 -152 -153 253 0
252 -254 0
152 -254 0
-153 -254 0
-252 -152 153 254 0
-253 255 0
-254 255 0
253 254 -255 0
255 -256 0
156 -256 0
157 -256 0
-255 -156 -157 256 0
255 -257 0
156 -257 0
-157 -257 0
-255 -156 157 257 0
247 -258 0
129 -258 0
-130 -258 0
-132 -258 0
-134 -258 0
-136 -258 0
138 -258 0
139 -258 0
-247 -129 130 132 134 136 -138 -139 258 0
247 -259 0
129 -259 0
-130 -259 0
-132 -259 0
-134 -259 0
-136 -259 0
138 -259 0
-139 -259 0
-247 -129 130 132 134 136 -138 139 259 0
-258 260 0
-259 260 0
258 259 -260 0
260 -261 0
142 -261 0
143 -261 0
-260 -142 -143 261 0
260 -262 0
142 -262 0
-143 -262 0
-260 -142 143 262 0
-261 263 0
-262 263 0
261 262 -263 0
263 -264 0
146 -264 0
147 -264 0
-263 -146 -147 264 0
263 -265 0
146 -265 0
-147 -265 0
-263 -146 147 265 0
-256 266 0
-257 266 0
-264 266 0
-265 266 0
256 257 264 265 -266 0
-165 267 0
-166 267 0
165 166 -267 0
-163 268 0
-267 268 0
163 267 -268 0
266 -269 0
268 -269 0
-266 -268 269 0
-238 270 0
-249 270 0
-269 270 0
238 249 269 -270 0
270 -271 0
-168 -271 0
-270 168 271 0
270 -272 0
168 -272 0
-270 -168 272 0
-271 273 0
-272 273 0
271 272 -273 0
-12 274 0
12 274 0
6 -275 0
274 -275 0
-6 -274 275 0
-275 276 0
6 276 0
275 -6 -276 0
276 -277 0
-21 -277 0
-276 21 277 0
276 -278 0
27 -278 0
28 -278 0
-276 -27 -28 278 0
276 -279 0
27 -279 0
-28 -279 0
30 -279 0
63 -279 0
-65 -279 0
-276 -27 28 -30 -63 65 279 0
276 -280 0
27 -280 0
-28 -280 0
30 -280 0
63 -280 0
65 -280 0
-276 -27 28 -30 -63 -65 280 0
276 -281 0
27 -281 0
-28 -281 0
30 -281 0
-63 -281 0
-276 -27 28 -30 63 281 0
276 -282 0
31 -282 0
-276 -31 282 0
276 -283 0
-31 -283 0
-276 31 283 0
-282 284 0
-283 284 0
282 283 -284 0
-34 285 0
-36 285 0
-39 285 0
-41 285 0
-43 285 0
-45 285 0
-47 285 0
-49 285 0
34 36 39 41 43 45 47 49 -285 0
284 -286 0
285 -286 0
-284 -285 286 0
284 -287 0
32 -287 0
33 -287 0
-35 -287 0
37 -287 0
-38 -287 0
40 -287 0
-46 -287 0
-48 -287 0
59 -287 0
-284 -32 -33 35 -37 38 -40 46 48 -59 287 0
284 -288 0
197 -288 0
-284 -197 288 0
-286 289 0
-287 289 0
-288 289 0
286 287 288 -289 0
289 -290 0
27 -290 0
-28 -290 0
-30 -290 0
61 -290 0
-289 -27 28 30 -61 290 0
-279 291 0
-280 291 0
-281 291 0
-290 291 0
279 280 281 290 -291 0
291 -292 0
68 -292 0
69 -292 0
-291 -68 -69 292 0
291 -293 0
68 -293 0
-69 -293 0
-291 -68 69 293 0
-278 294 0
-292 294 0
-293 294 0
278 292 293 -294 0
294 -295 0
21 -295 0
25 -295 0
72 -295 0
74 -295 0
75 -295 0
-294 -21 -25 -72 -74 -75 295 0
294 -296 0
21 -296 0
25 -296 0
72 -296 0
74 -296 0
-75 -296 0
78 -296 0
-294 -21 -25 -72 -74 75 -78 296 0
-295 297 0
-296 297 0
295 296 -297 0
297 -298 0
208 -298 0
-297 -208 298 0
-277 299 0
-298 299 0
277 298 -299 0
5 -300 0
299 -300 0
-5 -299 300 0
-5 -301 0
276 -301 0
5 -276 301 0
-300 302 0
-301 302 0
300 301 -302 0
302 -303 0
-88 -303 0
-302 88 303 0
302 -304 0
88 -304 0
-302 -88 304 0
-303 305 0
-304 305 0
303 304 -305 0
4 -306 0
305 -306 0
-4 -305 306 0
-4 -307 0
302 -307 0
4 -302 307 0
-306 308 0
-307 308 0
306 307 -308 0
308 -309 0
-93 -309 0
-308 93 309 0
308 -310 0
93 -310 0
-308 -93 310 0
-309 311 0
-310 311 0
309 310 -311 0
3 -312 0
311 -312 0
-3 -311 312 0
-3 -313 0
308 -313 0
3 -308 313 0
-312 314 0
-313 314 0
312 313 -314 0
314 -315 0
-98 -315 0
-314 98 315 0
314 -316 0
98 -316 0
-314 -98 316 0
-315 317 0
-316 317 0
315 316 -317 0
2 -318 0
317 -318 0
-2 -317 318 0
314 -319 0
-102 -319 0
-314 102 319 0
314 -320 0
102 -320 0
-314 -102 320 0
-319 321 0
-320 321 0
319 320 -321 0
101 -322 0
321 -322 0
-101 -321 322 0
-101 -323 0
314 -323 0
101 -314 323 0
-322 324 0
-323 324 0
322 323 -324 0
-2 -325 0
324 -325 0
2 -324 325 0
-318 326 0
-325 326 0
318 325 -326 0
326 -327 0
-109 -327 0
-326 109 327 0
326 -328 0
109 -328 0
110 -328 0
-326 -109 -110 328 0
326 -329 0
109 -329 0
-110 -329 0
-326 -109 110 329 0
-328 330 0
-329 330 0
328 329 -330 0
330 -331 0
113 -331 0
114 -331 0
-330 -113 -114 331 0
330 -332 0
113 -332 0
-114 -332 0
-330 -113 114 332 0
-331 333 0
-332 333 0
331 332 -333 0
333 -334 0
125 -334 0
126 -334 0
-333 -125 -126 334 0
333 -335 0
125 -335 0
-126 -335 0
-333 -125 126 335 0
-334 336 0
-335 336 0
334 335 -336 0
-131 337 0
-133 337 0
-135 337 0
-137 337 0
131 133 135 137 -337 0
336 -338 0
337 -338 0
-336 -337 338 0
336 -339 0
129 -339 0
-130 -339 0
-132 -339 0
-134 -339 0
-136 -339 0
-138 -339 0
149 -339 0
-336 -129 130 132 134 136 138 -149 339 0
336 -340 0
129 -340 0
-130 -340 0
-132 -340 0
-134 -340 0
-136 -340 0
-138 -340 0
-149 -340 0
-336 -129 130 132 134 136 138 149 340 0
-339 341 0
-340 341 0
339 340 -341 0
341 -342 0
152 -342 0
153 -342 0
-341 -152 -153 342 0
341 -343 0
152 -343 0
-153 -343 0
-341 -152 153 343 0
-342 344 0
-343 344 0
342 343 -344 0
344 -345 0
156 -345 0
157 -345 0
-344 -156 -157 345 0
344 -346 0
156 -346 0
-157 -346 0
-344 -156 157 346 0
336 -347 0
129 -347 0
-130 -347 0
-132 -347 0
-134 -347 0
-136 -347 0
138 -347 0
139 -347 0
-336 -129 130 132 134 136 -138 -139 347 0
336 -348 0
129 -348 0
-130 -348 0
-132 -348 0
-134 -348 0
-136 -348 0
138 -348 0
-139 -348 0
-336 -129 130 132 134 136 -138 139 348 0
-347 349 0
-348 349 0
347 348 -349 0
349 -350 0
142 -350 0
143 -350 0
-349 -142 -143 350 0
349 -351 0
142 -351 0
-143 -351 0
-349 -142 143 351 0
-350 352 0
-351 352 0
350 351 -352 0
352 -353 0
146 -353 0
147 -353 0
-352 -146 -147 353 0
352 -354 0
146 -354 0
-147 -354 0
-352 -146 147 354 0
-345 355 0
-346 355 0
-353 355 0
-354 355 0
345 346 353 354 -355 0
-163 356 0
-267 356 0
163 267 -356 0
355 -357 0
356 -357 0
-355 -356 357 0
-327 358 0
-338 358 0
-357 358 0
327 338 357 -358 0
358 -359 0
-168 -359 0
-358 168 359 0
358 -360 0
168 -360 0
-358 -168 360 0
-359 361 0
-360 361 0
359 360 -361 0
367 -369 0
368 -369 0
-367 -368 369 0
367 -370 0
-368 -370 0
-367 368 370 0
367 371 0
-369 371 0
-370 371 0
-367 369 370 -371 0
-372 373 0
372 373 0
366 -374 0
371 -374 0
373 -374 0
-366 -371 -373 374 0
-366 -375 0
371 -375 0
366 -371 375 0
-374 376 0
-375 376 0
374 375 -376 0
-377 378 0
377 378 0
-379 380 0
379 380 0
382 -384 0
-383 -384 0
-382 383 384 0
382 385 0
-384 385 0
-382 384 -385 0
-386 387 0
386 387 0
387 -389 0
388 -389 0
-387 -388 389 0
-391 392 0
391 392 0
392 -394 0
-393 -394 0
-392 393 394 0
392 -396 0
393 -396 0
395 -396 0
-392 -393 -395 396 0
392 -399 0
393 -399 0
-395 -399 0
397 -399 0
398 -399 0
-392 -393 395 -397 -398 399 0
392 -401 0
393 -401 0
-395 -401 0
397 -401 0
-398 -401 0
-400 -401 0
-392 -393 395 -397 398 400 401 0
392 -403 0
393 -403 0
-395 -403 0
-397 -403 0
-402 -403 0
-392 -393 395 397 402 403 0
392 -405 0
393 -405 0
-395 -405 0
-397 -405 0
402 -405 0
404 -405 0
-392 -393 395 397 -402 -404 405 0
392 -407 0
393 -407 0
-395 -407 0
397 -407 0
-398 -407 0
400 -407 0
406 -407 0
-392 -393 395 -397 398 -400 -406 407 0
392 -409 0
393 -409 0
-395 -409 0
397 -409 0
-398 -409 0
400 -409 0
-406 -409 0
408 -409 0
-392 -393 395 -397 398 -400 406 -408 409 0
-410 411 0
410 411 0
392 -413 0
393 -413 0
-395 -413 0
-397 -413 0
402 -413 0
-404 -413 0
411 -413 0
412 -413 0
-392 -393 395 397 -402 404 -411 -412 413 0
392 -414 0
393 -414 0
-395 -414 0
-397 -414 0
402 -414 0
-404 -414 0
411 -414 0
-412 -414 0
-392 -393 395 397 -402 404 -411 412 414 0
415 -417 0
416 -417 0
-415 -416 417 0
415 -418 0
-416 -418 0
-415 416 418 0
415 419 0
-417 419 0
-418 419 0
-415 417 418 -419 0
392 -420 0
393 -420 0
-395 -420 0
397 -420 0
-398 -420 0
400 -420 0
-406 -420 0
-408 -420 0
419 -420 0
-392 -393 395 -397 398 -400 406 408 -419 420 0
-394 421 0
-396 421 0
-399 421 0
-401 421 0
-403 421 0
-405 421 0
-407 421 0
-409 421 0
-413 421 0
-414 421 0
-420 421 0
394 396 399 401 403 405 407 409 413 414 420 -421 0
387 -422 0
-388 -422 0
-390 -422 0
421 -422 0
-387 388 390 -421 422 0
387 -424 0
-388 -424 0
390 -424 0
-423 -424 0
-387 388 -390 423 424 0
387 -426 0
-388 -426 0
390 -426 0
423 -426 0
-425 -426 0
-387 388 -390 -423 425 426 0
387 -427 0
-388 -427 0
390 -427 0
423 -427 0
425 -427 0
-387 388 -390 -423 -425 427 0
-422 428 0
-424 428 0
-426 428 0
-427 428 0
422 424 426 427 -428 0
428 -430 0
429 -430 0
-428 -429 430 0
428 -431 0
-429 -431 0
-428 429 431 0
-389 432 0
-430 432 0
-431 432 0
389 430 431 -432 0
-433 434 0
433 434 0
381 -436 0
385 -436 0
432 -436 0
434 -436 0
435 -436 0
-381 -385 -432 -434 -435 436 0
-437 438 0
437 438 0
381 -439 0
385 -439 0
432 -439 0
434 -439 0
-435 -439 0
438 -439 0
-381 -385 -432 -434 435 -438 439 0
-436 440 0
-439 440 0
436 439 -440 0
440 -442 0
441 -442 0
-440 -441 442 0
440 -443 0
-441 -443 0
-440 441 443 0
381 444 0
-442 444 0
-443 444 0
-381 442 443 -444 0
365 -445 0
376 -445 0
378 -445 0
380 -445 0
444 -445 0
-365 -376 -378 -380 -444 445 0
-365 -446 0
376 -446 0
378 -446 0
380 -446 0
365 -376 -378 -380 446 0
-445 447 0
-446 447 0
445 446 -447 0
448 449 0
-448 449 0
364 -450 0
447 -450 0
449 -450 0
-364 -447 -449 450 0
-364 -451 0
447 -451 0
364 -447 451 0
-450 452 0
-451 452 0
450 451 -452 0
453 454 0
-453 454 0
363 -455 0
452 -455 0
454 -455 0
-363 -452 -454 455 0
-363 -456 0
452 -456 0
363 -452 456 0
-455 457 0
-456 457 0
455 456 -457 0
458 459 0
-458 459 0
362 -460 0
457 -460 0
459 -460 0
-362 -457 -459 460 0
462 463 0
-462 463 0
461 -464 0
457 -464 0
463 -464 0
-461 -457 -463 464 0
-461 -465 0
457 -465 0
461 -457 465 0
-464 466 0
-465 466 0
464 465 -466 0
-362 -467 0
466 -467 0
362 -466 467 0
-460 468 0
-467 468 0
460 467 -468 0
469 -471 0
470 -471 0
-469 -470 471 0
469 -472 0
-470 -472 0
-469 470 472 0
-471 473 0
-472 473 0
471 472 -473 0
473 -475 0
474 -475 0
-473 -474 475 0
473 -476 0
-474 -476 0
-473 474 476 0
-475 477 0
-476 477 0
475 476 -477 0
477 -480 0
-478 -480 0
479 -480 0
-477 478 -479 480 0
477 -481 0
-478 -481 0
-479 -481 0
-477 478 479 481 0
477 -483 0
478 -483 0
482 -483 0
-477 -478 -482 483 0
477 -484 0
478 -484 0
-482 -484 0
-477 -478 482 484 0
-480 485 0
-481 485 0
-483 485 0
-484 485 0
480 481 483 484 -485 0
485 -487 0
486 -487 0
-485 -486 487 0
485 -488 0
-486 -488 0
-485 486 488 0
-487 489 0
-488 489 0
487 488 -489 0
489 -491 0
490 -491 0
-489 -490 491 0
489 -493 0
-490 -493 0
492 -493 0
-489 490 -492 493 0
489 -495 0
-490 -495 0
-492 -495 0
494 -495 0
-489 490 492 -494 495 0
489 -497 0
-490 -497 0
-492 -497 0
-494 -497 0
496 -497 0
-489 490 492 494 -496 497 0
489 -500 0
-490 -500 0
-492 -500 0
-494 -500 0
-496 -500 0
498 -500 0
499 -500 0
-489 490 492 494 496 -498 -499 500 0
489 -501 0
-490 -501 0
-492 -501 0
-494 -501 0
-496 -501 0
498 -501 0
-499 -501 0
-489 490 492 494 496 -498 499 501 0
-500 502 0
-501 502 0
500 501 -502 0
502 -504 0
503 -504 0
-502 -503 504 0
502 -505 0
-503 -505 0
-502 503 505 0
-504 506 0
-505 506 0
504 505 -506 0
506 -508 0
507 -508 0
-506 -507 508 0
489 -510 0
-490 -510 0
-492 -510 0
-494 -510 0
-496 -510 0
-498 -510 0
509 -510 0
-489 490 492 494 496 498 -509 510 0
489 -511 0
-490 -511 0
-492 -511 0
-494 -511 0
-496 -511 0
-498 -511 0
-509 -511 0
-489 490 492 494 496 498 509 511 0
-510 512 0
-511 512 0
510 511 -512 0
512 -514 0
513 -514 0
-512 -513 514 0
512 -515 0
-513 -515 0
-512 513 515 0
-514 516 0
-515 516 0
514 515 -516 0
516 -518 0
517 -518 0
-516 -517 518 0
506 -519 0
-507 -519 0
-506 507 519 0
516 -520 0
-517 -520 0
-516 517 520 0
-508 521 0
-518 521 0
-519 521 0
-520 521 0
508 518 519 520 -521 0
521 -523 0
-522 -523 0
-521 522 523 0
521 -525 0
522 -525 0
524 -525 0
-521 -522 -524 525 0
521 -526 0
522 -526 0
-524 -526 0
-521 -522 524 526 0
469 527 0
-491 527 0
-493 527 0
-495 527 0
-497 527 0
-523 527 0
-525 527 0
-526 527 0
-469 491 493 495 497 523 525 526 -527 0
468 -528 0
527 -528 0
-468 -527 528 0
-372 529 0
372 529 0
366 -530 0
529 -530 0
-366 -529 530 0
-530 531 0
366 531 0
530 -366 -531 0
531 -532 0
-381 -532 0
-531 381 532 0
531 -533 0
387 -533 0
388 -533 0
-531 -387 -388 533 0
531 -534 0
387 -534 0
-388 -534 0
390 -534 0
423 -534 0
-425 -534 0
-531 -387 388 -390 -423 425 534 0
531 -535 0
387 -535 0
-388 -535 0
390 -535 0
423 -535 0
425 -535 0
-531 -387 388 -390 -423 -425 535 0
531 -536 0
387 -536 0
-388 -536 0
390 -536 0
-423 -536 0
-531 -387 388 -390 423 536 0
531 -537 0
391 -537 0
-531 -391 537 0
531 -538 0
-391 -538 0
-531 391 538 0
-537 539 0
-538 539 0
537 538 -539 0
-394 540 0
-396 540 0
-399 540 0
-401 540 0
-403 540 0
-405 540 0
-407 540 0
-409 540 0
394 396 399 401 403 405 407 409 -540 0
539 -541 0
540 -541 0
-539 -540 541 0
539 -542 0
392 -542 0
393 -542 0
-395 -542 0
397 -542 0
-398 -542 0
400 -542 0
-406 -542 0
-408 -542 0
419 -542 0
-539 -392 -393 395 -397 398 -400 406 408 -419 542 0
-413 543 0
-414 543 0
413 414 -543 0
539 -544 0
543 -544 0
-539 -543 544 0
-541 545 0
-542 545 0
-544 545 0
541 542 544 -545 0
545 -546 0
387 -546 0
-388 -546 0
-390 -546 0
421 -546 0
-545 -387 388 390 -421 546 0
-534 547 0
-535 547 0
-536 547 0
-546 547 0
534 535 536 546 -547 0
547 -548 0
428 -548 0
429 -548 0
-547 -428 -429 548 0
547 -549 0
428 -549 0
-429 -549 0
-547 -428 429 549 0
-533 550 0
-548 550 0
-549 550 0
533 548 549 -550 0
550 -551 0
381 -551 0
385 -551 0
432 -551 0
434 -551 0
435 -551 0
-550 -381 -385 -432 -434 -435 551 0
550 -552 0
381 -552 0
385 -552 0
432 -552 0
434 -552 0
-435 -552 0
438 -552 0
-550 -381 -385 -432 -434 435 -438 552 0
-551 553 0
-552 553 0
551 552 -553 0
-442 554 0
-443 554 0
442 443 -554 0
553 -555 0
554 -555 0
-553 -554 555 0
-532 556 0
-555 556 0
532 555 -556 0
365 -557 0
556 -557 0
-365 -556 557 0
-365 -558 0
531 -558 0
365 -531 558 0
-557 559 0
-558 559 0
557 558 -559 0
559 -560 0
-448 -560 0
-559 448 560 0
559 -561 0
448 -561 0
-559 -448 561 0
-560 562 0
-561 562 0
560 561 -562 0
364 -563 0
562 -563 0
-364 -562 563 0
-364 -564 0
559 -564 0
364 -559 564 0
-563 565 0
-564 565 0
563 564 -565 0
565 -566 0
-453 -566 0
-565 453 566 0
565 -567 0
453 -567 0
-565 -453 567 0
-566 568 0
-567 568 0
566 567 -568 0
363 -569 0
568 -569 0
-363 -568 569 0
-363 -570 0
565 -570 0
363 -565 570 0
-569 571 0
-570 571 0
569 570 -571 0
571 -572 0
-458 -572 0
-571 458 572 0
571 -573 0
458 -573 0
-571 -458 573 0
-572 574 0
-573 574 0
572 573 -574 0
362 -575 0
574 -575 0
-362 -574 575 0
571 -576 0
-462 -576 0
-571 462 576 0
571 -577 0
462 -577 0
-571 -462 577 0
-576 578 0
-577 578 0
576 577 -578 0
461 -579 0
578 -579 0
-461 -578 579 0
-461 -580 0
571 -580 0
461 -571 580 0
-579 581 0
-580 581 0
579 580 -581 0
-362 -582 0
581 -582 0
362 -581 582 0
-575 583 0
-582 583 0
575 582 -583 0
583 -584 0
-469 -584 0
-583 469 584 0
583 -585 0
469 -585 0
470 -585 0
-583 -469 -470 585 0
583 -586 0
469 -586 0
-470 -586 0
-583 -469 470 586 0
-585 587 0
-586 587 0
585 586 -587 0
587 -588 0
473 -588 0
474 -588 0
-587 -473 -474 588 0
587 -589 0
473 -589 0
-474 -589 0
-587 -473 474 589 0
-588 590 0
-589 590 0
588 589 -590 0
590 -591 0
485 -591 0
486 -591 0
-590 -485 -486 591 0
590 -592 0
485 -592 0
-486 -592 0
-590 -485 486 592 0
-591 593 0
-592 593 0
591 592 -593 0
-491 594 0
-493 594 0
-495 594 0
-497 594 0
491 493 495 497 -594 0
593 -595 0
594 -595 0
-593 -594 595 0
593 -596 0
489 -596 0
-490 -596 0
-492 -596 0
-494 -596 0
-496 -596 0
-498 -596 0
509 -596 0
-593 -489 490 492 494 496 498 -509 596 0
593 -597 0
489 -597 0
-490 -597 0
-492 -597 0
-494 -597 0
-496 -597 0
-498 -597 0
-509 -597 0
-593 -489 490 492 494 496 498 509 597 0
-596 598 0
-597 598 0
596 597 -598 0
598 -599 0
512 -599 0
513 -599 0
-598 -512 -513 599 0
598 -600 0
512 -600 0
-513 -600 0
-598 -512 513 600 0
-599 601 0
-600 601 0
599 600 -601 0
601 -602 0
516 -602 0
517 -602 0
-601 -516 -517 602 0
601 -603 0
516 -603 0
-517 -603 0
-601 -516 517 603 0
593 -604 0
489 -604 0
-490 -604 0
-492 -604 0
-494 -604 0
-496 -604 0
498 -604 0
499 -604 0
-593 -489 490 492 494 496 -498 -499 604 0
593 -605 0
489 -605 0
-490 -605 0
-492 -605 0
-494 -605 0
-496 -605 0
498 -605 0
-499 -605 0
-593 -489 490 492 494 496 -498 499 605 0
-604 606 0
-605 606 0
604 605 -606 0
606 -607 0
502 -607 0
503 -607 0
-606 -502 -503 607 0
606 -608 0
502 -608 0
-503 -608 0
-606 -502 503 608 0
-607 609 0
-608 609 0
607 608 -609 0
609 -610 0
506 -610 0
507 -610 0
-609 -506 -507 610 0
609 -611 0
506 -611 0
-507 -611 0
-609 -506 507 611 0
-602 612 0
-603 612 0
-610 612 0
-611 612 0
602 603 610 611 -612 0
-525 613 0
-526 613 0
525 526 -613 0
-523 614 0
-613 614 0
523 613 -614 0
612 -615 0
614 -615 0
-612 -614 615 0
-584 616 0
-595 616 0
-615 616 0
584 595 615 -616 0
-372 617 0
372 617 0
366 -618 0
617 -618 0
-366 -617 618 0
-618 619 0
366 619 0
618 -366 -619 0
619 -620 0
-381 -620 0
-619 381 620 0
619 -621 0
387 -621 0
388 -621 0
-619 -387 -388 621 0
619 -622 0
387 -622 0
-388 -622 0
390 -622 0
423 -622 0
-425 -622 0
-619 -387 388 -390 -423 425 622 0
619 -623 0
387 -623 0
-388 -623 0
390 -623 0
423 -623 0
425 -623 0
-619 -387 388 -390 -423 -425 623 0
619 -624 0
387 -624 0
-388 -624 0
390 -624 0
-423 -624 0
-619 -387 388 -390 423 624 0
619 -625 0
391 -625 0
-619 -391 625 0
619 -626 0
-391 -626 0
-619 391 626 0
-625 627 0
-626 627 0
625 626 -627 0
-394 628 0
-396 628 0
-399 628 0
-401 628 0
-403 628 0
-405 628 0
-407 628 0
-409 628 0
394 396 399 401 403 405 407 409 -628 0
627 -629 0
628 -629 0
-627 -628 629 0
627 -630 0
392 -630 0
393 -630 0
-395 -630 0
397 -630 0
-398 -630 0
400 -630 0
-406 -630 0
-408 -630 0
419 -630 0
-627 -392 -393 395 -397 398 -400 406 408 -419 630 0
627 -631 0
543 -631 0
-627 -543 631 0
-629 632 0
-630 632 0
-631 632 0
629 630 631 -632 0
632 -633 0
387 -633 0
-388 -633 0
-390 -633 0
421 -633 0
-632 -387 388 390 -421 633 0
-622 634 0
-623 634 0
-624 634 0
-633 634 0
622 623 624 633 -634 0
634 -635 0
428 -635 0
429 -635 0
-634 -428 -429 635 0
634 -636 0
428 -636 0
-429 -636 0
-634 -428 429 636 0
-621 637 0
-635 637 0
-636 637 0
621 635 636 -637 0
637 -638 0
381 -638 0
385 -638 0
432 -638 0
434 -638 0
435 -638 0
-637 -381 -385 -432 -434 -435 638 0
637 -639 0
381 -639 0
385 -639 0
432 -639 0
434 -639 0
-435 -639 0
438 -639 0
-637 -381 -385 -432 -434 435 -438 639 0
-638 640 0
-639 640 0
638 639 -640 0
640 -641 0
554 -641 0
-640 -554 641 0
-620 642 0
-641 642 0
620 641 -642 0
365 -643 0
642 -643 0
-365 -642 643 0
-365 -644 0
619 -644 0
365 -619 644 0
-643 645 0
-644 645 0
643 644 -645 0
645 -646 0
-448 -646 0
-645 448 646 0
645 -647 0
448 -647 0
-645 -448 647 0
-646 648 0
-647 648 0
646 647 -648 0
364 -649 0
648 -649 0
-364 -648 649 0
-364 -650 0
645 -650 0
364 -645 650 0
-649 651 0
-650 651 0
649 650 -651 0
651 -652 0
-453 -652 0
-651 453 652 0
651 -653 0
453 -653 0
-651 -453 653 0
-652 654 0
-653 654 0
652 653 -654 0
363 -655 0
654 -655 0
-363 -654 655 0
-363 -656 0
651 -656 0
363 -651 656 0
-655 657 0
-656 657 0
655 656 -657 0
657 -658 0
-458 -658 0
-657 458 658 0
657 -659 0
458 -659 0
-657 -458 659 0
-658 660 0
-659 660 0
658 659 -660 0
362 -661 0
660 -661 0
-362 -660 661 0
657 -662 0
-462 -662 0
-657 462 662 0
657 -663 0
462 -663 0
-657 -462 663 0
-662 664 0
-663 664 0
662 663 -664 0
461 -665 0
664 -665 0
-461 -664 665 0
-461 -666 0
657 -666 0
461 -657 666 0
-665 667 0
-666 667 0
665 666 -667 0
-362 -668 0
667 -668 0
362 -667 668 0
-661 669 0
-668 669 0
661 668 -669 0
669 -670 0
-469 -670 0
-669 469 670 0
669 -671 0
469 -671 0
470 -671 0
-669 -469 -470 671 0
669 -672 0
469 -672 0
-470 -672 0
-669 -469 470 672 0
-671 673 0
-672 673 0
671 672 -673 0
673 -674 0
473 -674 0
474 -674 0
-673 -473 -474 674 0
673 -675 0
473 -675 0
-474 -675 0
-673 -473 474 675 0
-674 676 0
-675 676 0
674 675 -676 0
676 -677 0
485 -677 0
486 -677 0
-676 -485 -486 677 0
676 -678 0
485 -678 0
-486 -678 0
-676 -485 486 678 0
-677 679 0
-678 679 0
677 678 -679 0
-491 680 0
-493 680 0
-495 680 0
-497 680 0
491 493 495 497 -680 0
679 -681 0
680 -681 0
-679 -680 681 0
679 -682 0
489 -682 0
-490 -682 0
-492 -682 0
-494 -682 0
-496 -682 0
-498 -682 0
509 -682 0
-679 -489 490 492 494 496 498 -509 682 0
679 -683 0
489 -683 0
-490 -683 0
-492 -683 0
-494 -683 0
-496 -683 0
-498 -683 0
-509 -683 0
-679 -489 490 492 494 496 498 509 683 0
-682 684 0
-683 684 0
682 683 -684 0
684 -685 0
512 -685 0
513 -685 0
-684 -512 -513 685 0
684 -686 0
512 -686 0
-513 -686 0
-684 -512 513 686 0
-685 687 0
-686 687 0
685 686 -687 0
687 -688 0
516 -688 0
517 -688 0
-687 -516 -517 688 0
687 -689 0
516 -689 0
-517 -689 0
-687 -516 517 689 0
679 -690 0
489 -690 0
-490 -690 0
-492 -690 0
-494 -690 0
-496 -690 0
498 -690 0
499 -690 0
-679 -489 490 492 494 496 -498 -499 690 0
679 -691 0
489 -691 0
-490 -691 0
-492 -691 0
-494 -691 0
-496 -691 0
498 -691 0
-499 -691 0
-679 -489 490 492 494 496 -498 499 691 0
-690 692 0
-691 692 0
690 691 -692 0
692 -693 0
502 -693 0
503 -693 0
-692 -502 -503 693 0
692 -694 0
502 -694 0
-503 -694 0
-692 -502 503 694 0
-693 695 0
-694 695 0
693 694 -695 0
695 -696 0
506 -696 0
507 -696 0
-695 -506 -507 696 0
695 -697 0
506 -697 0
-507 -697 0
-695 -506 507 697 0
-688 698 0
-689 698 0
-696 698 0
-697 698 0
688 689 696 697 -698 0
-523 699 0
-613 699 0
523 613 -699 0
698 -700 0
699 -700 0
-698 -699 700 0
-670 701 0
-681 701 0
-700 701 0
670 681 700 -701 0
-616 -273 -702 0
616 273 -702 0
-616 273 702 0
616 -273 702 0
-701 -361 -703 0
701 361 -703 0
-701 361 703 0
701 -361 703 0
-702 -704 0
-703 -704 0
528 -704 0
702 703 -528 704 0
-182 704 0
